185 3946
 2 3 4 5 6 7 8 9 10 11 12 13 14 15 16 33 34 35 36 37 38 39 40 41 42 43 44 45 46 47 48 49 50 51 52 53 54 55 56 57 58 59 60 61 62 63 64 65 66 67 68 69 70 71 72 73 74 75 76 77 78 79 80 81 82 83 84 85 86 87 88 89 90 91 92 93 94 95 96 97 98 99 100 101 102 103 104 105 106 107 109 110 111 112 113 114 115 116 117 118 119 120 121 122 123 124 125 126 128 129 130 131 132 133 134 135 136 137 138 140 142 143 144 145 146 147 148 150 152 153 154 155 156 158 160 161 162 163 164 165 166 167 168 169 170 171 172 173 174 175 176 177 178 180 181 183 184 185
 3 4 5 6 7 8 9 10 11 12 13 14 15 16 33 34 35 36 37 38 39 40 41 42 43 44 45 46 47 48 49 50 51 52 53 54 55 56 57 58 59 60 61 62 63 64 65 66 67 68 69 70 71 72 73 74 75 76 77 78 79 80 81 82 83 84 85 86 87 88 89 90 91 92 93 94 95 96 97 98 99 100 101 102 103 104 105 106 107 109 110 111 112 113 114 115 116 117 118 119 120 121 122 123 124 125 126 128 129 130 131 132 133 134 135 136 137 138 140 142 143 144 145 146 147 148 150 152 153 154 155 156 158 160 161 162 163 164 165 166 167 168 169 170 171 172 173 174 175 176 177 178 180 181 183 184 185
 4 5 6 7 8 9 10 11 12 13 14 15 16 33 38 39 40 41 42 43 44 45 46 47 48 49 50 51 52 53 54 55 56 57 58 59 60 61 63 64 65 66 67 70 100 101 102 103 104 105 106 107 111 112 117 118 121 129 131 133 134 135 137 138 142 143 144 145 146 147 148 152 153 154 155 156 162 163 164 180 181
 5 6 7 8 9 10 11 12 13 14 15 16 33 46 47 48 49 50 51 52 53 54 61 63 64 65 66 67 70 100 101 102 103 104 105 106 107 111 112 117 118 121 129 131 133 134 135 137 138 142 143 144 145 146 147 148 152 153 154 155 156 162 163 164 180 181
 6 7 8 9 10 11 12 13 14 15 16 33 38 46 47 48 49 50 51 52 53 54 61 63 64 65 66 67 70 100 101 102 103 104 105 106 107 111 112 117 118 121 129 131 133 134 135 137 138 142 143 144 145 146 147 148 152 153 154 155 156 162 163 164 174 180 181
 7 8 9 10 11 12 13 14 15 16 33 38 39 46 47 48 49 50 51 52 53 54 61 63 64 65 66 67 70 100 101 102 103 104 105 106 107 111 112 117 118 121 129 131 133 134 135 137 138 142 143 144 145 146 147 148 152 153 154 155 156 162 163 164 173 174 180 181
 8 9 10 11 12 13 14 15 16 33 38 39 40 46 47 48 49 50 51 52 53 54 61 63 64 65 66 67 70 100 101 102 103 104 105 106 107 111 112 117 118 121 129 131 133 134 135 137 138 142 143 144 145 146 147 148 152 153 154 155 156 162 163 164 172 173 174 180 181
 9 10 11 12 13 14 15 16 33 38 39 40 41 46 47 48 49 50 51 52 53 54 61 63 64 65 66 67 70 100 101 102 103 104 105 106 107 111 112 117 118 121 129 131 133 134 135 137 138 142 143 144 145 146 147 148 152 153 154 155 156 162 163 164 171 172 173 174 180 181
 10 11 12 13 14 15 16 33 38 39 40 41 42 46 47 48 49 50 51 52 53 54 61 63 64 65 66 67 70 100 101 102 103 104 105 106 107 111 112 117 118 121 129 131 133 134 135 137 138 142 143 144 145 146 147 148 152 153 154 155 156 162 163 164 170 171 172 173 174 180 181
 11 12 13 14 15 16 33 38 39 40 41 42 43 46 47 48 49 50 51 52 53 54 61 63 64 65 66 67 70 100 101 102 103 104 105 106 107 111 112 117 118 121 129 131 133 134 135 137 138 142 143 144 145 146 147 148 152 153 154 155 156 162 163 164 169 170 171 172 173 174 180 181
 12 13 14 15 16 33 38 39 40 41 42 43 44 45 46 47 48 49 50 51 52 53 54 61 63 64 65 66 67 70 100 101 102 103 104 105 106 107 111 112 117 118 121 129 131 133 134 135 137 138 142 143 144 145 146 147 148 152 153 154 155 156 162 163 164 180 181
 13 14 15 16 33 38 39 40 41 42 43 44 45 46 47 48 49 50 51 52 53 54 55 56 61 63 64 65 66 67 70 100 101 102 103 104 105 106 107 111 112 117 118 121 129 131 133 134 135 137 138 142 143 144 145 146 147 148 152 153 154 155 156 162 163 164 180 181
 14 15 16 33 38 39 40 41 42 43 44 45 46 47 48 49 50 51 52 53 54 55 56 57 58 61 63 64 65 66 67 70 100 101 102 103 104 105 106 107 111 112 117 118 121 129 131 133 134 135 137 138 142 143 144 145 146 147 148 152 153 154 155 156 162 163 164 180 181
 15 16 33 38 39 40 41 42 43 44 45 46 47 48 49 50 51 52 53 54 55 56 57 58 59 61 63 64 65 66 67 70 100 101 102 103 104 105 106 107 111 112 117 118 121 129 131 133 134 135 137 138 142 143 144 145 146 147 148 152 153 154 155 156 162 163 164 180 181
 16 33 46 47 48 49 50 51 52 53 54 61 63 64 65 66 67 70 100 101 102 103 104 105 106 107 111 112 117 118 121 129 131 133 134 135 137 138 142 143 144 145 146 147 148 152 153 154 155 156 162 163 164 180 181
 33 38 39 40 41 42 43 44 46 47 48 49 50 51 52 53 54 61 63 64 65 66 67 70 100 101 102 103 104 105 106 107 111 112 117 118 121 129 131 133 134 135 137 138 142 143 144 145 146 147 148 152 153 154 155 156 162 163 164 168 169 170 171 172 173 174 180 181
 18 19 20 21 22 23 24 25 26 27 28 29 30 31 32 33 34 35 36 37 38 39 40 41 42 43 44 45 46 47 48 49 50 51 52 53 54 55 56 57 58 59 60 61 62 63 64 65 66 67 68 69 70 71 72 73 74 75 76 77 78 79 80 81 82 83 84 85 86 87 88 89 90 91 92 93 94 95 96 97 98 99 100 101 102 103 104 105 106 107 109 110 111 112 113 114 115 116 117 118 119 120 121 122 123 124 125 126 128 129 130 131 132 133 134 135 136 137 138 140 142 143 144 145 146 147 148 150 152 153 154 155 156 158 160 161 162 163 164 165 166 167 168 169 170 171 172 173 174 175 176 177 178 180 181 183 184 185
 19 20 21 22 23 24 25 26 27 28 29 30 31 32 34 35 36 37 38 39 40 41 42 43 44 45 55 56 57 58 59 60 62 68 69 71 72 73 74 75 76 77 78 79 80 81 82 83 84 85 86 87 88 89 90 91 92 93 94 95 96 97 98 99 109 110 113 114 115 116 119 120 122 123 124 125 126 128 130 132 136 140 150 158 160 161 165 166 167 168 169 170 171 172 173 174 175 176 177 178 183 184 185
 20 21 22 23 24 25 26 27 28 29 30 31 32 34 35 36 37 38 39 40 41 42 43 44 45 46 55 56 57 58 59 60 62 68 69 71 72 73 74 75 76 77 78 79 80 81 82 83 84 85 86 87 88 89 90 91 92 93 94 95 96 97 98 99 109 110 113 114 115 116 119 120 122 123 124 125 126 128 130 132 136 140 150 158 160 161 162 165 166 167 168 169 170 171 172 173 174 175 176 177 178 183 184 185
 21 22 23 24 25 26 27 28 29 30 31 32 34 35 36 37 38 39 40 41 42 43 44 45 46 47 55 56 57 58 59 60 62 68 69 71 72 73 74 75 76 77 78 79 80 81 82 83 84 85 86 87 88 89 90 91 92 93 94 95 96 97 98 99 109 110 113 114 115 116 119 120 122 123 124 125 126 128 130 132 136 140 150 158 160 161 162 163 165 166 167 168 169 170 171 172 173 174 175 176 177 178 183 184 185
 22 23 24 25 26 27 28 29 30 31 32 34 35 36 37 38 39 40 41 42 43 44 45 46 47 48 55 56 57 58 59 60 62 68 69 71 72 73 74 75 76 77 78 79 80 81 82 83 84 85 86 87 88 89 90 91 92 93 94 95 96 97 98 99 109 110 113 114 115 116 119 120 122 123 124 125 126 128 130 132 136 140 150 158 160 161 162 163 164 165 166 167 168 169 170 171 172 173 174 175 176 177 178 183 184 185
 23 24 25 26 27 28 29 30 31 32 34 35 36 37 38 39 40 41 42 43 44 45 46 47 48 49 55 56 57 58 59 60 62 68 69 71 72 73 74 75 76 77 78 79 80 81 82 83 84 85 86 87 88 89 90 91 92 93 94 95 96 97 98 99 109 110 113 114 115 116 119 120 122 123 124 125 126 128 130 132 136 140 150 158 160 161 162 163 164 165 166 167 168 169 170 171 172 173 174 175 176 177 178 183 184 185
 24 25 26 27 28 29 30 31 32 34 35 36 37 38 39 40 41 42 43 44 45 46 47 48 49 50 55 56 57 58 59 60 62 68 69 71 72 73 74 75 76 77 78 79 80 81 82 83 84 85 86 87 88 89 90 91 92 93 94 95 96 97 98 99 109 110 113 114 115 116 119 120 122 123 124 125 126 128 130 132 136 140 150 158 160 161 162 163 164 165 166 167 168 169 170 171 172 173 174 175 176 177 178 183 184 185
 25 26 27 28 29 30 31 32 34 35 36 37 38 39 40 41 42 43 44 45 46 47 48 49 50 51 55 56 57 58 59 60 62 68 69 71 72 73 74 75 76 77 78 79 80 81 82 83 84 85 86 87 88 89 90 91 92 93 94 95 96 97 98 99 109 110 113 114 115 116 119 120 122 123 124 125 126 128 130 132 136 140 150 158 160 161 162 163 164 165 166 167 168 169 170 171 172 173 174 175 176 177 178 183 184 185
 26 27 28 29 30 31 32 34 35 36 37 38 39 40 41 42 43 44 45 46 47 48 49 50 51 52 55 56 57 58 59 60 62 68 69 71 72 73 74 75 76 77 78 79 80 81 82 83 84 85 86 87 88 89 90 91 92 93 94 95 96 97 98 99 109 110 113 114 115 116 119 120 122 123 124 125 126 128 130 132 136 140 150 158 160 161 162 163 164 165 166 167 168 169 170 171 172 173 174 175 176 177 178 183 184 185
 27 28 29 30 31 32 34 35 36 37 38 39 40 41 42 43 44 45 46 47 48 49 50 51 52 53 55 56 57 58 59 60 62 68 69 71 72 73 74 75 76 77 78 79 80 81 82 83 84 85 86 87 88 89 90 91 92 93 94 95 96 97 98 99 109 110 113 114 115 116 119 120 122 123 124 125 126 128 130 132 136 140 150 158 160 161 162 163 164 165 166 167 168 169 170 171 172 173 174 175 176 177 178 183 184 185
 28 29 30 31 32 34 35 36 37 38 39 40 41 42 43 44 45 55 56 57 58 59 60 62 68 69 71 72 73 74 75 76 77 78 79 80 81 82 83 84 85 86 87 88 89 90 91 92 93 94 95 96 97 98 99 109 110 113 114 115 116 119 120 122 123 124 125 126 128 130 132 136 140 150 158 160 161 165 166 167 168 169 170 171 172 173 174 175 176 177 178 183 184 185
 29 30 31 32 34 35 36 37 38 39 40 41 42 43 44 45 55 56 57 58 59 60 62 68 69 71 72 73 74 75 76 77 78 79 80 81 82 83 84 85 86 87 88 89 90 91 92 93 94 95 96 97 98 99 109 110 113 114 115 116 119 120 122 123 124 125 126 128 130 132 136 140 150 158 160 161 165 166 167 168 169 170 171 172 173 174 175 176 177 178 183 184 185
 30 31 32 34 35 36 37 38 39 40 41 42 43 44 45 55 56 57 58 59 60 62 68 69 71 72 73 74 75 76 77 78 79 80 81 82 83 84 85 86 87 88 89 90 91 92 93 94 95 96 97 98 99 109 110 113 114 115 116 119 120 122 123 124 125 126 128 130 132 136 140 150 158 160 161 165 166 167 168 169 170 171 172 173 174 175 176 177 178 183 184 185
 31 32 34 35 36 37 38 39 40 41 42 43 44 45 55 56 57 58 59 60 62 68 69 71 72 73 74 75 76 77 78 79 80 81 82 83 84 85 86 87 88 89 90 91 92 93 94 95 96 97 98 99 109 110 113 114 115 116 119 120 122 123 124 125 126 128 130 132 136 140 150 158 160 161 165 166 167 168 169 170 171 172 173 174 175 176 177 178 183 184 185
 32 34 35 36 37 38 39 40 41 42 43 44 45 55 56 57 58 59 60 62 68 69 71 72 73 74 75 76 77 78 79 80 81 82 83 84 85 86 87 88 89 90 91 92 93 94 95 96 97 98 99 109 110 113 114 115 116 119 120 122 123 124 125 126 128 130 132 136 140 150 158 160 161 165 166 167 168 169 170 171 172 173 174 175 176 177 178 183 184 185
 34 35 36 37 38 39 40 41 42 43 44 45 55 56 57 58 59 60 62 68 69 71 72 73 74 75 76 77 78 79 80 81 82 83 84 85 86 87 88 89 90 91 92 93 94 95 96 97 98 99 109 110 113 114 115 116 119 120 122 123 124 125 126 128 130 132 136 140 150 158 160 161 165 166 167 168 169 170 171 172 173 174 175 176 177 178 183 184 185
 49 50 51 52 53 54 61 63 65 66 67 70 107 111
 60 71 83 85 86 89 90 92 93 95 96 128 130 132 136 140
 60 71 83 85 86 89 90 92 93 95 96 158
 60 71 83 85 86 89 90 92 93 95 96 150
 177 178 183











 50 51 52 53 54 61 63 64 65 66 67 70 100 101 102 103 104 105 106 107 111 112 117 118 121 129 131 133 134 135 137 138 142 143 144 145 146 147 148 152 153 154 155 156 162 163 164 180 181
 51 52 53 54 61 63 64 65 66 67 70 100 101 102 103 104 105 106 107 111 112 117 118 121 129 131 133 134 135 137 138 142 143 144 145 146 147 148 152 153 154 155 156 162 163 164 180 181
 52 53 54 61 63 64 65 66 67 70 100 101 102 103 104 105 106 107 111 112 117 118 121 129 131 133 134 135 137 138 142 143 144 145 146 147 148 152 153 154 155 156 162 163 164 180 181
 53 54 61 63 64 65 66 67 70 100 101 102 103 104 105 106 107 111 112 117 118 121 129 131 133 134 135 137 138 142 143 144 145 146 147 148 152 153 154 155 156 162 163 164 180 181
 54 61 63 64 65 66 67 70 100 101 102 103 104 105 106 107 111 112 117 118 121 129 131 133 134 135 137 138 142 143 144 145 146 147 148 152 153 154 155 156 162 163 164 180 181
 61 63 64 65 66 67 70 100 101 102 103 104 105 106 107 111 112 117 118 121 129 131 133 134 135 137 138 142 143 144 145 146 147 148 152 153 154 155 156 162 163 164 180 181





 62 68 69 71 72 73 74 75 76 77 78 79 80 81 82 83 84 85 86 87 88 89 90 91 92 93 94 95 96 97 98 99 109 110 113 114 115 116 119 120 122 123 124 125 128 130 132 136 140 150 158
 63 64 65 66 67 70 100 101 102 103 104 105 106 107 111 112 117 118 121 129 131 133 134 135 137 138 142 143 144 145 146 147 148 152 153 154 155 156

 64 65 66 67 70 100 101 102 103 104 105 106 107 111 112 117 118 121 129 131 133 134 135 137 138 142 143 144 145 146 147 148 152 153 154 155 156

 66 67 70 100 101 102 103 104 105 106 107 111 112 117 118 121 129 131 133 134 135 137 138 142 143 144 145 146 147 148 152 153 154 155 156
 67 70 100 101 102 103 104 105 106 107 111 112 117 118 121 129 131 133 134 135 137 138 142 143 144 145 146 147 148 152 153 154 155 156
 70 100 101 102 103 104 105 106 107 111 112 117 118 121 129 131 133 134 135 137 138 142 143 144 145 146 147 148 152 153 154 155 156

 71 72 73 74
 100 101 102 103 104 105 106 107 111 112 117 118 121 129 131 133 134 135 137 138 142 143 144 145 146 147 148 152 153 154 155 156
 72 73 74 75 76 77 78 79 80 81 82 83 84 85 86 87 88 89 90 91 92 93 94 95 96 97 98 99 109 110 113 114 115 116 119 120 122 123 124 125 128 130 132 136 140 150 158

 74



 78 79 80 81
 79 80 81 82 83
 80 81 82 83 84
 81 82 83 84 85
 82 83 84 85 86 87
 83 84 85 86 87 88 89
 84 85 86 87 88 89 90 91 92 93 94 95 96 97 98 99 109 110 113 114 115 116 119 120 122 123 124 125 128 130 132 136 140 150 158
 85 86
 86 87 88 89 90 91 92 93 94 95 96 97 98 99 109 110 113 114 115 116 119 120 122 123 124 125 128 130 132 136 140 150 158
 87 88 89 90 91 92 93 94 95 96 97 98 99 109 110 113 114 115 116 119 120 122 123 124 125 128 130 132 136 140 150 158
 88 89 90 91 92
 89 90 91 92 93 94 95
 90 91 92 93 94 95 96 97 98 99 109 110 113 114 115 116 119 120 122 123 124 125 128 130 132 136 140 150 158
 91 92 93 94 95 96 97 98 99 109 110 113 114 115 116 119 120 122 123 124 125 128 130 132 136 140 150 158

 93 94 95 96 97 98 99 109 110 113 114 115 116 119 120 122 123 124 125 128 130 132 136 140 150 158
 94 95 96 97 98 99 109 110 113 114 115 116 119 120 122 123 124 125 128 130 132 136 140 150 158

 96 97 98 99 109 110 113 114 115 116 119 120 122 123 124 125 128 130 132 136 140 150 158
 97 98 99 109 110 113 114 115 116 119 120 122 123 124 125 128 130 132 136 140 150 158

 99








 152 153 154 155 156

 110



 114 115 116
 115 116
 116
 119 120
 118

 120



 124




 130 132 136
 131 133 134

 133



 137






 143 144 145
 144


 147













 161

 163 164
 164

 166

 168 169 170 171 172 173 174
 169 170 171 172 173 174
 170 171 172 173 174
 171 172 173 174
 172 173 174
 173 174
 174

 176
 177
 178 183
 183







